%nprocshared=96
%mem=50GB
%chk=IM2.chk
# scrf=(solvent=n,n-dimethylformamide) def2tzvp m062x geom=allcheck
