%nprocshared=96
%mem=10GB
%chk=TS2.chk
# scrf=(solvent=n,n-dimethylformamide) def2tzvp m062x geom=allcheck
