%nprocshared=16
%mem=50GB
%chk=CH3Cl-Cl-opt.chk
# opt freq 6-311+g(d,p) em=gd3 m062x

Title Card Required

-1 1
 C                  0.54262000    0.00308200    0.00127700
 H                  0.19836700    0.60417100    0.83534600
 H                  0.20076700   -1.01839500    0.10445000
 H                  0.20590800    0.42583700   -0.93534500
 Cl                 2.37174600   -0.00103200    0.00031200
 Cl                -2.57539100   -0.00036000   -0.00087800

