%nprocshared=16
%mem=50GB
%chk=CH3Cl-Cl-ts.chk
# opt=(calcfc,ts,noeigen) freq 6-311+g(d,p) em=gd3 m062x

Title Card Required

-1 1
 C                 -0.70907122    0.28445035   -0.30968326
 H                 -0.19981674   -0.60410325    0.00020748
 H                 -0.19715841    1.01678640   -0.89835061
 H                 -1.73023719    0.44066475   -0.03090543
 Cl                 0.07937041    1.50503897    1.89443189
 Cl                -1.49751680   -0.93612812   -2.51380251

