%nprocshared=16
%mem=50GB
%chk=CH3Cl-Cl-irc.chk
# irc=(calcfc,maxpoints=200,stepsiz=5,lqa) 6-311+g(d,p) em=gd3 m062x

Title Card Required

-1 1
 C                  0.00000100   -0.00002600   -0.00038700
 H                 -0.00000300    0.60631800    0.88475800
 H                  0.00000800   -1.06976500    0.08211700
 H                 -0.00000500    0.46339100   -0.96807900
 Cl                 2.31381100    0.00000600    0.00010400
 Cl                -2.31381100    0.00000600    0.00010400

