%nprocshared=32
%mem=50GB
%chk=00O-irc.chk
# irc=(calcfc,maxpoints=30,lqa,stepsize=10) 6-311+g(2df,2p) em=gd3 m062x

Title Card Required

-1 1
 C                 -0.14011700    0.09139200    0.01919300
 H                  0.17691600   -0.42144500   -0.86866500
 H                  0.12891200   -0.37800200    0.94584600
 O                  2.03895300    0.41047200    0.03300800
 Cl                -2.12306000   -0.57855500   -0.00136300
 C                 -0.33004200    1.58022000   -0.01281900
 H                 -0.86466200    1.87628200   -0.91439600
 H                 -0.91247000    1.91069900    0.84632100
 H                  0.65053800    2.05441300    0.00062800
 O                  2.57925800   -0.91964500   -0.13259200
 H                  2.78805800   -1.16280400    0.77186800

