%nprocshared=96
%mem=345GB
%chk=s0-td.chk
# td=(nstates=5) PBE1PBE/genecp scrf=(solvent=toluene) em=gd3bj

s0-td

0 1
 Pd                -0.18039400    0.57268200   -0.55754900
 N                  0.03292200   -2.38938800   -1.77175700
 N                  1.73591100   -1.10106900   -1.93531400
 N                  1.23511000    3.04590400   -0.03292000
 N                 -0.63434900    3.34996100    0.97151800
 N                 -2.15547400    0.07932200    0.05688400
 N                  4.25802700    0.40513400    1.55171300
 N                  6.20406200   -0.19486600    0.36088100
 N                  4.42162400   -1.72919900    0.56119100
 C                 -4.76918700   -2.19405100   -3.11989000
 H                 -4.77287500   -1.10866400   -2.98777800
 H                 -5.77551700   -2.55847200   -2.89437300
 H                 -4.56291000   -2.40965000   -4.17397100
 C                 -3.73187500   -2.83479500   -2.21111900
 H                 -3.76852000   -3.92797800   -2.30638200
 H                 -3.97280600   -2.60190300   -1.16793700
 C                 -2.32382400   -2.34289300   -2.51307800
 H                 -2.30088800   -1.24955300   -2.46450400
 H                 -2.02858400   -2.63062100   -3.53005200
 C                 -1.31407200   -2.88253300   -1.51592200
 H                 -1.59140400   -2.58409700   -0.50404000
 H                 -1.27027900   -3.97446800   -1.54586300
 C                  1.04289800   -3.12081000   -2.36990000
 H                  0.90526000   -4.14639800   -2.66961400
 C                  2.12370100   -2.30800600   -2.46795200
 H                  3.11194300   -2.49163900   -2.85437000
 C                  0.43957700   -1.14115000   -1.49094900
 C                  2.43490400    0.11199600   -1.73982300
 C                  1.63576500    1.04320100   -1.10022200
 C                  2.17181500    2.27361300   -0.76130800
 C                  3.47916000    2.61094200   -1.08538100
 H                  3.91270400    3.56654800   -0.81267700
 C                  4.24985400    1.65975100   -1.75580000
 H                  5.27760000    1.89803700   -2.00436400
 C                  3.74989900    0.39863600   -2.08413200
 H                  4.38574200   -0.32739900   -2.57916400
 C                  0.01016300    2.47100100    0.18749000
 C                  1.34082300    4.25898100    0.60786100
 H                  2.22814500    4.86837400    0.57101400
 C                  0.15620700    4.45453300    1.23806900
 H                 -0.18780200    5.27407500    1.84685500
 C                 -1.99762500    3.15821300    1.44749900
 H                 -2.00641100    3.31816000    2.53022000
 H                 -2.24034200    2.11258400    1.25128000
 C                 -2.98951200    4.07668200    0.75474600
 H                 -2.76040700    5.12304200    0.99512100
 H                 -2.87503800    3.96119300   -0.32843000
 C                 -4.42344400    3.75267600    1.14855900
 H                 -4.66047800    2.73681800    0.81281500
 H                 -4.51239600    3.75124400    2.24256600
 C                 -5.41909700    4.73640800    0.55514300
 H                 -6.44524900    4.47916400    0.83093500
 H                 -5.36015200    4.73618800   -0.53718800
 H                 -5.22508900    5.75699900    0.90199800
 C                 -3.37472900    1.43065200   -1.65544700
 H                 -2.47686700    1.86653700   -2.08385400
 C                 -4.62749600    1.72921200   -2.15998900
 H                 -4.69075100    2.41639100   -2.99853200
 C                 -5.81786900    1.16788700   -1.64397900
 C                 -5.71501800    0.28706700   -0.57455300
 H                 -6.60194300   -0.17296300   -0.15289500
 C                 -4.46383900   -0.03267000   -0.04125000
 C                 -3.27946100    0.53591200   -0.58239900
 C                 -2.59455000   -0.79849600    1.01483000
 C                 -4.01727100   -0.92066800    0.99676100
 C                 -4.66390000   -1.82449900    1.83367200
 H                 -5.74700100   -1.90294700    1.79410600
 C                 -3.93411700   -2.63847200    2.69802900
 C                 -2.53613800   -2.50231300    2.71047300
 H                 -1.94357600   -3.10962600    3.38528200
 C                 -1.85063200   -1.59228900    1.91006400
 C                 -7.15216200    1.50845900   -2.30679200
 C                 -8.33014000    0.82431700   -1.61410900
 H                 -8.24316200   -0.26565900   -1.65244800
 H                 -9.26235400    1.10169500   -2.11531300
 H                 -8.41126200    1.12645000   -0.56554400
 C                 -7.39137600    3.02300800   -2.26469100
 H                 -7.44708200    3.37633600   -1.23167200
 H                 -8.33251300    3.27456500   -2.76562300
 H                 -6.58920500    3.57283600   -2.76413300
 C                 -7.12381400    1.04353500   -3.77005000
 H                 -6.31933600    1.52839800   -4.32944100
 H                 -8.07113200    1.28222500   -4.26583600
 H                 -6.96728700   -0.03738400   -3.82853700
 C                 -4.66570800   -3.64142200    3.59051400
 C                 -3.70780300   -4.44393500    4.47071100
 H                 -2.99875300   -5.02413700    3.87249000
 H                 -4.27765100   -5.14681500    5.08578200
 H                 -3.13911800   -3.79645100    5.14476200
 C                 -5.44670400   -4.62868500    2.71183000
 H                 -6.18121400   -4.11442200    2.08652700
 H                 -5.98190400   -5.35540600    3.33275100
 H                 -4.76843900   -5.17548100    2.04988700
 C                 -5.64498700   -2.89552800    4.50698700
 H                 -5.11050000   -2.18791800    5.14758000
 H                 -6.18375300   -3.60137100    5.14856400
 H                 -6.38414100   -2.33286000    3.93077900
 C                 -0.38105300   -1.47173600    1.95412900
 C                  0.45015000   -2.53336100    1.58357000
 H                  0.00546000   -3.49673900    1.35534900
 C                  1.80987400   -2.33851800    1.41026200
 H                  2.44217900   -3.13730800    1.04154700
 C                  2.37585100   -1.08291800    1.64471000
 C                  1.57118800   -0.05395600    2.13686800
 H                  2.01958500    0.91180000    2.33447500
 C                  0.20813600   -0.24416000    2.27628700
 H                 -0.42505700    0.57208900    2.60558000
 C                  3.76146600   -0.79771400    1.25517700
 C                  5.63188400   -1.37774100    0.13144800
 C                  5.47187000    0.66452600    1.07309900
 C                  6.36835100   -2.35133200   -0.69930600
 C                  5.76921600   -3.56209100   -1.05601700
 H                  4.76922700   -3.77202100   -0.69568800
 C                  6.44906200   -4.46695000   -1.85785100
 H                  5.97936700   -5.40572100   -2.13156200
 C                  7.73237300   -4.17297500   -2.30853000
 H                  8.26369100   -4.88193600   -2.93473600
 C                  8.33374400   -2.96931900   -1.95478300
 H                  9.33461300   -2.73938600   -2.30398700
 C                  7.65554200   -2.06081900   -1.15543100
 H                  8.10709300   -1.11762700   -0.87280200
 C                  6.02361800    2.01223300    1.31320200
 C                  7.27346400    2.36579000    0.80295500
 H                  7.84017000    1.62374100    0.25373100
 C                  7.76829900    3.64789400    0.99463900
 H                  8.73982700    3.91727100    0.59442500
 C                  7.02069700    4.58636000    1.69856600
 H                  7.40886100    5.58847100    1.84781800
 C                  5.77548000    4.23715000    2.21339100
 H                  5.19274400    4.96594300    2.76694100
 C                  5.27776300    2.95706600    2.02172300
 H                  4.30788900    2.66851500    2.40836300

C H N
6-311g(d,p)
****
Pd
SDD
****

Pd
SDD

