%nprocshared=96
%mem=345GB
%chk=s0.chk
# opt freq PBE1PBE/genecp scrf=(solvent=toluene) em=gd3bj

s0 opt

0 1
 Pd                -0.18023500    0.57251600   -0.55731000
 N                  0.03277800   -2.38952600   -1.77166300
 N                  1.73597100   -1.10144800   -1.93496100
 N                  1.23567300    3.04542000   -0.03221700
 N                 -0.63387400    3.34974100    0.97197500
 N                 -2.15541700    0.07933600    0.05694600
 N                  4.25785800    0.40506400    1.55154900
 N                  6.20372300   -0.19492300    0.36042800
 N                  4.42126300   -1.72921400    0.56087700
 C                 -4.76930100   -2.19341400   -3.11980800
 H                 -4.77280500   -1.10804000   -2.98757200
 H                 -5.77567500   -2.55769600   -2.89428000
 H                 -4.56311200   -2.40892800   -4.17392000
 C                 -3.73205200   -2.83443400   -2.21116000
 H                 -3.76883300   -3.92759500   -2.30661300
 H                 -3.97293900   -2.60168800   -1.16793900
 C                 -2.32394700   -2.34264600   -2.51304700
 H                 -2.30088900   -1.24931700   -2.46432800
 H                 -2.02872200   -2.63027100   -3.53005600
 C                 -1.31428600   -2.88253300   -1.51593900
 H                 -1.59161400   -2.58420200   -0.50402700
 H                 -1.27062500   -3.97446900   -1.54601900
 C                  1.04269900   -3.12104800   -2.36976900
 H                  0.90495900   -4.14660400   -2.66953700
 C                  2.12363800   -2.30840100   -2.46764400
 H                  3.11189800   -2.49216400   -2.85394700
 C                  0.43957400   -1.14134900   -1.49076300
 C                  2.43514500    0.11148000   -1.73927300
 C                  1.63609800    1.04274900   -1.09965700
 C                  2.17232700    2.27303100   -0.76055800
 C                  3.47975100    2.61018200   -1.08449600
 H                  3.91341100    3.56571300   -0.81171700
 C                  4.25035300    1.65892600   -1.75492800
 H                  5.27815100    1.89707800   -2.00339600
 C                  3.75022100    0.39792600   -2.08342900
 H                  4.38599100   -0.32816900   -2.57846000
 C                  0.01057000    2.47073900    0.18793500
 C                  1.34155600    4.25837300    0.60876500
 H                  2.22902700    4.86756000    0.57217100
 C                  0.15688400    4.45410100    1.23881000
 H                 -0.18703300    5.27362200    1.84767000
 C                 -1.99727700    3.15824200    1.44768800
 H                 -2.00621800    3.31801200    2.53043500
 H                 -2.24021700    2.11270500    1.25125200
 C                 -2.98880900    4.07707600    0.75490800
 H                 -2.75949700    5.12333800    0.99551500
 H                 -2.87413800    3.96175700   -0.32826400
 C                 -4.42290600    3.75335100    1.14834700
 H                 -4.66010800    2.73761500    0.81236300
 H                 -4.51211300    3.75173700    2.24233200
 C                 -5.41817700    4.73743100    0.55486700
 H                 -6.44445100    4.48046200    0.83045900
 H                 -5.35903800    4.73730200   -0.53744900
 H                 -5.22392900    5.75792900    0.90185900
 C                 -3.37446500    1.43058500   -1.65560800
 H                 -2.47655000    1.86639600   -2.08397900
 C                 -4.62717900    1.72920100   -2.16025200
 H                 -4.69032900    2.41634800   -2.99882800
 C                 -5.81762700    1.16799100   -1.64429100
 C                 -5.71490400    0.28723100   -0.57480400
 H                 -6.60188200   -0.17271300   -0.15316700
 C                 -4.46378200   -0.03255200   -0.04139400
 C                 -3.27932500    0.53591700   -0.58249100
 C                 -2.59463300   -0.79839400    1.01490300
 C                 -4.01735600   -0.92048200    0.99673400
 C                 -4.66409200   -1.82422000    1.83366400
 H                 -5.74719500   -1.90260600    1.79403700
 C                 -3.93441300   -2.63817900    2.69812300
 C                 -2.53642600   -2.50210800    2.71065000
 H                 -1.94394500   -3.10942600    3.38552700
 C                 -1.85081900   -1.59217200    1.91023500
 C                 -7.15185500    1.50863300   -2.30720900
 C                 -8.32993400    0.82461500   -1.61457300
 H                 -8.24301900   -0.26536700   -1.65281000
 H                 -9.26208400    1.10200100   -2.11588600
 H                 -8.41113100    1.12684400   -0.56604100
 C                 -7.39096800    3.02319900   -2.26519700
 H                 -7.44674100    3.37657800   -1.23220300
 H                 -8.33204200    3.27480000   -2.76622100
 H                 -6.58872200    3.57295400   -2.76459600
 C                 -7.12344400    1.04364300   -3.77044100
 H                 -6.31888600    1.52841100   -4.32979500
 H                 -8.07070400    1.28239200   -4.26630700
 H                 -6.96700700   -0.03728700   -3.82887400
 C                 -4.66612900   -3.64098600    3.59066200
 C                 -3.70833000   -4.44344200    4.47102800
 H                 -2.99922200   -5.02369400    3.87292800
 H                 -4.27824900   -5.14626900    5.08608800
 H                 -3.13971100   -3.79591500    5.14509400
 C                 -5.44712000   -4.62832200    2.71205900
 H                 -6.18158100   -4.11412200    2.08665700
 H                 -5.98236800   -5.35494700    3.33304600
 H                 -4.76884300   -5.17522500    2.05021700
 C                 -5.64542300   -2.89490800    4.50697000
 H                 -5.11092800   -2.18726700    5.14751900
 H                 -6.18430300   -3.60062600    5.14858500
 H                 -6.38448000   -2.33224300    3.93063300
 C                 -0.38123500   -1.47170800    1.95430500
 C                  0.44991600   -2.53334900    1.58370000
 H                  0.00519400   -3.49670800    1.35546800
 C                  1.80963300   -2.33852600    1.41029100
 H                  2.44188700   -3.13732000    1.04150000
 C                  2.37565500   -1.08294300    1.64470500
 C                  1.57104900   -0.05396700    2.13694200
 H                  2.01947700    0.91177900    2.33450000
 C                  0.20800600   -0.24414400    2.27643900
 H                 -0.42515900    0.57212000    2.60574500
 C                  3.76121500   -0.79774600    1.25498500
 C                  5.63147000   -1.37776200    0.13098200
 C                  5.47165400    0.66444000    1.07281100
 C                  6.36778100   -2.35131400   -0.69995300
 C                  5.76848300   -3.56194400   -1.05682000
 H                  4.76848800   -3.77181100   -0.69647400
 C                  6.44817900   -4.46676200   -1.85882900
 H                  5.97835600   -5.40543200   -2.13266100
 C                  7.73150500   -4.17287600   -2.30952200
 H                  8.26270500   -4.88180400   -2.93586300
 C                  8.33303900   -2.96934800   -1.95562000
 H                  9.33391700   -2.73948300   -2.30483700
 C                  7.65498500   -2.06088600   -1.15609900
 H                  8.10665700   -1.11779100   -0.87335000
 C                  6.02346700    2.01212000    1.31292200
 C                  7.27318200    2.36572600    0.80239600
 H                  7.83976500    1.62372200    0.25298800
 C                  7.76804900    3.64782400    0.99404900
 H                  8.73947200    3.91724300    0.59360700
 C                  7.02061400    4.58622800    1.69823400
 H                  7.40879400    5.58833600    1.84744600
 C                  5.77554200    4.23695500    2.21336600
 H                  5.19295000    4.96568800    2.76714900
 C                  5.27778800    2.95688200    2.02172300
 H                  4.30802600    2.66828400    2.40860300

C H N
6-311g(d,p)
****
Pd
SDD
****

Pd
SDD



