%nprocshared=96
%mem=345GB
%chk=s1.chk
# opt td=(nstates=5) PBE1PBE/genecp scrf=(solvent=toluene) em=gd3bj

s1 opt

0 1
 Pd                -0.12953000    0.48264000   -0.54398200
 N                  0.04339200   -2.57035800   -1.53381000
 N                  1.76022800   -1.32277300   -1.79953700
 N                  1.35973800    2.94433700   -0.15564800
 N                 -0.49279100    3.36737200    0.83060300
 N                 -2.14157800    0.08130700    0.03506200
 N                  4.25109600    0.42918800    1.69021000
 N                  6.11859000   -0.25671100    0.38899700
 N                  4.27247300   -1.73961700    0.71847600
 C                 -4.74178700   -2.56004700   -2.96695900
 H                 -4.71895900   -1.46870500   -3.03383200
 H                 -5.75660900   -2.85679400   -2.68748200
 H                 -4.53896800   -2.96089400   -3.96507400
 C                 -3.71894600   -3.05489200   -1.95649700
 H                 -3.76852800   -4.14792400   -1.87719600
 H                 -3.96879100   -2.66387300   -0.96293900
 C                 -2.30142700   -2.63340700   -2.31613600
 H                 -2.25921900   -1.54666600   -2.44399200
 H                 -2.00466500   -3.07713000   -3.27375700
 C                 -1.30411500   -3.02852100   -1.24078400
 H                 -1.59494400   -2.60412500   -0.27943300
 H                 -1.26264600   -4.11410800   -1.12208900
 C                  1.05214300   -3.36582100   -2.05038800
 H                  0.90901800   -4.41526400   -2.24623900
 C                  2.14223900   -2.57639800   -2.20989300
 H                  3.14356000   -2.80886300   -2.53311200
 C                  0.46623200   -1.30626700   -1.36569500
 C                  2.47953700   -0.11158000   -1.68934900
 C                  1.70309900    0.87300100   -1.10751200
 C                  2.27010200    2.10545300   -0.84325100
 C                  3.58246400    2.39183200   -1.19048300
 H                  4.04336400    3.34513800   -0.95920100
 C                  4.32630500    1.38741900   -1.80773100
 H                  5.36246300    1.57972300   -2.05765000
 C                  3.79572800    0.12250500   -2.05931100
 H                  4.41776300   -0.65585800   -2.48554700
 C                  0.12171600    2.42555300    0.09295900
 C                  1.51197500    4.18270100    0.42030600
 H                  2.42619100    4.74866900    0.36094700
 C                  0.33681600    4.45583100    1.03849200
 H                  0.02422100    5.31604600    1.60676200
 C                 -1.86574100    3.27359600    1.29759300
 H                 -1.90083900    3.64249000    2.32665700
 H                 -2.11771300    2.21331600    1.31495700
 C                 -2.83217600    4.04078600    0.41094500
 H                 -2.58909300    5.10974400    0.44279000
 H                 -2.69102600    3.71454600   -0.62535200
 C                 -4.28026100    3.82248600    0.82358300
 H                 -4.52248000    2.75787900    0.72565800
 H                 -4.40159500    4.07266300    1.88493800
 C                 -5.24765400    4.64496100   -0.01247500
 H                 -6.28523100    4.45540900    0.27552000
 H                 -5.14605900    4.40130800   -1.07388700
 H                 -5.05931500    5.71679500    0.10437200
 C                 -3.21536500    1.23499100   -1.88668700
 H                 -2.27761500    1.57213200   -2.31496800
 C                 -4.43144300    1.51155800   -2.48567200
 H                 -4.43360200    2.08248900   -3.40697900
 C                 -5.65658300    1.06281100   -1.95493000
 C                 -5.64406300    0.32481700   -0.75955900
 H                 -6.57035300   -0.03413900   -0.32893000
 C                 -4.44209600    0.04192900   -0.14196000
 C                 -3.21959300    0.48834700   -0.70485800
 C                 -2.64163200   -0.63082900    1.10170300
 C                 -4.06160700   -0.70619400    1.04680200
 C                 -4.76351700   -1.43522400    1.97692900
 H                 -5.84482100   -1.49536000    1.91825300
 C                 -4.06925700   -2.12166600    2.99646900
 C                 -2.67541400   -2.03073300    3.03806400
 H                 -2.12635000   -2.54333900    3.81719300
 C                 -1.93068300   -1.28981700    2.11871000
 C                 -6.94826100    1.35266000   -2.71159600
 C                 -8.17840200    0.80012700   -1.99251600
 H                 -8.13372100   -0.28794100   -1.88770500
 H                 -9.07363000    1.03842500   -2.57260600
 H                 -8.30088900    1.24172200   -0.99896600
 C                 -7.12625200    2.86833400   -2.87363400
 H                 -7.21599000    3.35645000   -1.90008600
 H                 -8.03609000    3.07461900   -3.44506300
 H                 -6.28768700    3.32421900   -3.40578800
 C                 -6.86617200    0.69862000   -4.09971900
 H                 -6.02728400    1.08680700   -4.68249900
 H                 -7.78517300    0.89895100   -4.65862200
 H                 -6.74649300   -0.38481900   -4.01472100
 C                 -4.86236000   -2.93823500    4.00810700
 C                 -3.96553200   -3.61507700    5.04331500
 H                 -3.26270400   -4.31229500    4.57836700
 H                 -4.58492200   -4.18523200    5.74057200
 H                 -3.39556800   -2.88593000    5.62606700
 C                 -5.64851300   -4.02658400    3.26140000
 H                 -6.35054700   -3.60101100    2.53976000
 H                 -6.22327100   -4.62538600    3.97418700
 H                 -4.97061300   -4.69405500    2.72182100
 C                 -5.84136700   -2.01195800    4.74451300
 H                 -5.30322500   -1.22462800    5.27972800
 H                 -6.42033900   -2.58724700    5.47308900
 H                 -6.54677800   -1.53504900    4.05916100
 C                 -0.45571600   -1.22533100    2.17095600
 C                  0.31653600   -2.34615000    1.85186800
 H                 -0.17172000   -3.30023200    1.67800200
 C                  1.68459200   -2.22296100    1.67264200
 H                  2.28323500   -3.06389100    1.34317000
 C                  2.31188200   -0.98842300    1.83990600
 C                  1.56135600    0.09576800    2.29033500
 H                  2.06832500    1.04048700    2.44301200
 C                  0.18530800   -0.01532400    2.43191300
 H                 -0.40338000    0.84964500    2.72006300
 C                  3.71780600   -0.77852200    1.41426200
 C                  5.50094100   -1.45603300    0.18232100
 C                  5.46753300    0.61785000    1.11795100
 C                  6.10043800   -2.41062100   -0.70202900
 C                  5.46627500   -3.64533000   -0.99003500
 H                  4.53057000   -3.86704000   -0.49080200
 C                  6.02802600   -4.54559400   -1.87654500
 H                  5.51994500   -5.48601200   -2.07290000
 C                  7.23963900   -4.26763200   -2.51545800
 H                  7.67635700   -4.97743000   -3.20899400
 C                  7.87994500   -3.05608500   -2.23501500
 H                  8.82516400   -2.82364100   -2.71758900
 C                  7.33107800   -2.14665600   -1.35192000
 H                  7.83075000   -1.20919700   -1.13898100
 C                  6.06833000    1.95903900    1.28470100
 C                  7.30955100    2.26642500    0.72096500
 H                  7.83603500    1.48359600    0.18752600
 C                  7.84246600    3.54097100    0.84055700
 H                  8.80764800    3.76563400    0.39756000
 C                  7.14479400    4.53307800    1.52776300
 H                  7.56347900    5.52995800    1.62131400
 C                  5.91206300    4.23349000    2.09740300
 H                  5.36653300    4.99846900    2.64194300
 C                  5.37687000    2.95664700    1.97828800
 H                  4.41809900    2.70204700    2.41355000

C H N
6-311g(d,p)
****
Pd
SDD
****

Pd
SDD






