%nprocshared=96
%mem=345GB
%chk=t1-3-td-noopt.chk
# td=(triplets,nstates=5) PBE1PBE/genecp scrf=(solvent=toluene) em=gd3bj

s1 opt

0 1
 Pd                -0.21518200    0.60955400   -0.48135200
 N                  0.00132400   -2.35485600   -1.73857600
 N                  1.70365800   -1.06513500   -1.86311600
 N                  1.18444900    3.11874500   -0.04753100
 N                 -0.63060200    3.40892600    1.05254100
 N                 -2.18005700    0.09917300    0.16957400
 N                  4.20380900    0.45597700    1.46441400
 N                  6.21232700   -0.11450700    0.34629100
 N                  4.51134100   -1.74732400    0.61053300
 C                 -4.77926200   -1.99517800   -3.12765600
 H                 -4.76581900   -0.92179000   -2.91754000
 H                 -5.79449100   -2.35763000   -2.94262000
 H                 -4.56357400   -2.13272000   -4.19229200
 C                 -3.76301400   -2.72269900   -2.26051000
 H                 -3.80748500   -3.80189500   -2.45516300
 H                 -4.02186400   -2.58815000   -1.20422100
 C                 -2.34567000   -2.21996000   -2.49280200
 H                 -2.31136000   -1.13502700   -2.35014700
 H                 -2.03821700   -2.41457800   -3.52754900
 C                 -1.34930300   -2.86000800   -1.54137200
 H                 -1.63382800   -2.67419600   -0.50574400
 H                 -1.31091500   -3.94292300   -1.68313300
 C                  1.02322600   -3.08031100   -2.32315400
 H                  0.89287600   -4.10540400   -2.62678300
 C                  2.10344800   -2.26628200   -2.39639000
 H                  3.10092400   -2.44587300   -2.75939000
 C                  0.40483900   -1.10814500   -1.43685000
 C                  2.38663800    0.15858300   -1.69949200
 C                  1.57928200    1.09907900   -1.08641500
 C                  2.10496800    2.34383500   -0.79105300
 C                  3.40029800    2.69033300   -1.14805500
 H                  3.82467900    3.65744900   -0.90450700
 C                  4.17779900    1.72861100   -1.79219500
 H                  5.20184900    1.96900200   -2.05176600
 C                  3.69373200    0.44987000   -2.06459600
 H                  4.33789900   -0.28971400   -2.52656200
 C                 -0.02243000    2.53605500    0.22911400
 C                  1.31997400    4.32639600    0.59615200
 H                  2.20696600    4.93304200    0.52449300
 C                  0.16920900    4.51439600    1.28660600
 H                 -0.14508900    5.32662000    1.92060200
 C                 -1.95428400    3.21448500    1.62278600
 H                 -1.88166300    3.34523700    2.70684600
 H                 -2.22206600    2.17600000    1.42896400
 C                 -2.99129200    4.15474700    1.03293300
 H                 -2.74483800    5.19083100    1.29649400
 H                 -2.95012100    4.08535000   -0.05945500
 C                 -4.39542300    3.81592400    1.51243100
 H                 -4.65577100    2.80967400    1.16360200
 H                 -4.41022300    3.77942900    2.60900400
 C                 -5.42966300    4.81501700    1.01907400
 H                 -6.43585500    4.54396500    1.34974300
 H                 -5.43899600    4.85753000   -0.07396500
 H                 -5.21591700    5.82222300    1.39110900
 C                 -3.39951600    1.61825800   -1.38958300
 H                 -2.49784000    2.08411700   -1.77397700
 C                 -4.65569600    1.96124900   -1.86364500
 H                 -4.72571600    2.72261800   -2.63284800
 C                 -5.83438200    1.34135700   -1.40166100
 C                 -5.73150900    0.35463800   -0.41619500
 H                 -6.61674700   -0.15141000   -0.05056000
 C                 -4.48433300   -0.00017200    0.07795700
 C                 -3.31537100    0.63143200   -0.40896900
 C                 -2.60171100   -0.86640700    1.04514800
 C                 -4.01619000   -1.01310000    1.00391600
 C                 -4.63567700   -2.08045400    1.61893700
 H                 -5.71129200   -2.20025700    1.55331800
 C                 -3.84326300   -3.06217000    2.27445600
 C                 -2.46826600   -2.90306200    2.32231100
 H                 -1.86170200   -3.62609100    2.85271000
 C                 -1.79335800   -1.78347200    1.77259300
 C                 -7.17248700    1.72575200   -2.02782400
 C                 -8.34376400    0.97236200   -1.39837800
 H                 -8.25293600   -0.10883400   -1.53851300
 H                 -9.27682100    1.28963500   -1.87214400
 H                 -8.42806200    1.17735800   -0.32692600
 C                 -7.41961400    3.22929600   -1.85012200
 H                 -7.47170300    3.49159900   -0.79031400
 H                 -8.36703200    3.51108800   -2.32035500
 H                 -6.62869400    3.82902900   -2.30757900
 C                 -7.13360200    1.38950200   -3.52621700
 H                 -6.34116100    1.93718700   -4.04250800
 H                 -8.08686200    1.65332700   -3.99538900
 H                 -6.95910000    0.32081700   -3.67989600
 C                 -4.54548900   -4.26038300    2.90165300
 C                 -3.57086500   -5.22836700    3.57010000
 H                 -2.84961400   -5.63449300    2.85493000
 H                 -4.12734500   -6.06856400    3.99471300
 H                 -3.01836100   -4.74972900    4.38358400
 C                 -5.30238400   -5.02142500    1.80207300
 H                 -6.05607000   -4.39572200    1.31750600
 H                 -5.81187400   -5.89020700    2.23073000
 H                 -4.61136100   -5.37487800    1.03112400
 C                 -5.54059300   -3.76580600    3.96119100
 H                 -5.02116400   -3.22142300    4.75488600
 H                 -6.06122500   -4.61642700    4.41230600
 H                 -6.29402800   -3.09992000    3.53299900
 C                 -0.37121100   -1.60901200    1.87224900
 C                  0.53572100   -2.67135600    1.62647700
 H                  0.14541200   -3.67385700    1.47465300
 C                  1.87494300   -2.43162600    1.45435500
 H                  2.54664200   -3.23353200    1.17255500
 C                  2.41149600   -1.12205600    1.59967900
 C                  1.53214000   -0.09652400    2.02121800
 H                  1.94046800    0.88921400    2.20587900
 C                  0.18021000   -0.32142400    2.10435800
 H                 -0.48272200    0.48165800    2.40999900
 C                  3.75736100   -0.80614200    1.23790100
 C                  5.69505900   -1.34668500    0.18736100
 C                  5.40265800    0.73981500    1.00329300
 C                  6.51374300   -2.32616100   -0.56467000
 C                  6.03127800   -3.61487000   -0.80843300
 H                  5.05513300   -3.87933400   -0.41924900
 C                  6.79003200   -4.52406800   -1.53043600
 H                  6.40724200   -5.52327600   -1.71214000
 C                  8.04195700   -4.15911200   -2.01924900
 H                  8.63550200   -4.87120500   -2.58340800
 C                  8.52862500   -2.87879800   -1.77923300
 H                  9.50453400   -2.59001800   -2.15602100
 C                  7.77014000   -1.96706400   -1.05682500
 H                  8.13191000   -0.96527100   -0.85963900
 C                  5.88294800    2.12806600    1.18406200
 C                  7.11182600    2.52859600    0.65803800
 H                  7.71813100    1.79012900    0.14737600
 C                  7.53442000    3.84620100    0.78367500
 H                  8.49070600    4.14787300    0.36857500
 C                  6.73720600    4.77739500    1.43982300
 H                  7.06883500    5.80597200    1.53856700
 C                  5.51306900    4.38137800    1.97489500
 H                  4.89026200    5.10178100    2.49622700
 C                  5.08897300    3.06749200    1.84746600
 H                  4.13660100    2.74114900    2.24829100

C H N
6-311g(d,p)
****
Pd
SDD
****

Pd
SDD



