%nprocshared=96
%mem=345GB
%chk=t1.chk
# opt td=(triplets,nstates=5) PBE1PBE/genecp scrf=(solvent=toluene) em=gd3bj

t1 opt

0 1
 Pd                -0.21526400    0.60960400   -0.48143000
 N                  0.00137800   -2.35490600   -1.73832600
 N                  1.70367000   -1.06514400   -1.86305700
 N                  1.18435700    3.11876300   -0.04756800
 N                 -0.63047900    3.40872600    1.05289900
 N                 -2.18012700    0.09936000    0.16957600
 N                  4.20396700    0.45598500    1.46433300
 N                  6.21241300   -0.11473300    0.34618000
 N                  4.51119900   -1.74733400    0.61039000
 C                 -4.77919800   -1.99554700   -3.12742300
 H                 -4.76568800   -0.92212800   -2.91748400
 H                 -5.79444500   -2.35791800   -2.94231600
 H                 -4.56353500   -2.13327200   -4.19204100
 C                 -3.76295800   -2.72300500   -2.26021400
 H                 -3.80730900   -3.80219100   -2.45494900
 H                 -4.02189800   -2.58854200   -1.20393000
 C                 -2.34565900   -2.22012000   -2.49242000
 H                 -2.31146600   -1.13517500   -2.34979500
 H                 -2.03811800   -2.41473000   -3.52714100
 C                 -1.34923000   -2.86005900   -1.54097500
 H                 -1.63364300   -2.67416300   -0.50533400
 H                 -1.31086700   -3.94298500   -1.68267900
 C                  1.02332200   -3.08043100   -2.32275700
 H                  0.89302200   -4.10560700   -2.62614600
 C                  2.10350600   -2.26636600   -2.39614300
 H                  3.10104100   -2.44602200   -2.75896900
 C                  0.40483800   -1.10812600   -1.43682400
 C                  2.38659300    0.15861600   -1.69955300
 C                  1.57918700    1.09912000   -1.08654200
 C                  2.10486000    2.34386000   -0.79113300
 C                  3.40019700    2.69037500   -1.14809200
 H                  3.82456400    3.65748500   -0.90448700
 C                  4.17774900    1.72866500   -1.79218500
 H                  5.20180200    1.96907700   -2.05174700
 C                  3.69370600    0.44990800   -2.06457900
 H                  4.33789200   -0.28968200   -2.52651500
 C                 -0.02254800    2.53610300    0.22903300
 C                  1.32012300    4.32616500    0.59654300
 H                  2.20717500    4.93273900    0.52496000
 C                  0.16946700    4.51405500    1.28720600
 H                 -0.14468800    5.32611500    1.92149800
 C                 -1.95426000    3.21452600    1.62298300
 H                 -1.88181800    3.34581000    2.70698600
 H                 -2.22204900    2.17595200    1.42960900
 C                 -2.99110800    4.15456500    1.03247500
 H                 -2.74454100    5.19075900    1.29551000
 H                 -2.94976000    4.08457300   -0.05986400
 C                 -4.39535600    3.81619400    1.51191200
 H                 -4.65574000    2.80974200    1.16368900
 H                 -4.41040600    3.78042500    2.60850900
 C                 -5.42936800    4.81507700    1.01765800
 H                 -6.43565900    4.54441400    1.34834700
 H                 -5.43849600    4.85679100   -0.07541300
 H                 -5.21553500    5.82252400    1.38900100
 C                 -3.39960100    1.61828400   -1.38972200
 H                 -2.49793000    2.08412700   -1.77415600
 C                 -4.65578000    1.96117900   -1.86385100
 H                 -4.72580700    2.72245800   -2.63314800
 C                 -5.83445900    1.34128300   -1.40184600
 C                 -5.73157200    0.35464800   -0.41629500
 H                 -6.61680000   -0.15141300   -0.05064600
 C                 -4.48439400   -0.00007500    0.07791300
 C                 -3.31543700    0.63154300   -0.40902000
 C                 -2.60177100   -0.86618000    1.04522200
 C                 -4.01624100   -1.01290700    1.00397600
 C                 -4.63571800   -2.08016900    1.61916500
 H                 -5.71133300   -2.20001500    1.55352500
 C                 -3.84327700   -3.06177600    2.27483900
 C                 -2.46829000   -2.90263700    2.32267400
 H                 -1.86170800   -3.62557100    2.85319100
 C                 -1.79339000   -1.78312400    1.77276700
 C                 -7.17255900    1.72553700   -2.02810500
 C                 -8.34383200    0.97224600   -1.39853500
 H                 -8.25301900   -0.10897200   -1.53850800
 H                 -9.27689300    1.28945500   -1.87234000
 H                 -8.42811000    1.17740700   -0.32711300
 C                 -7.41976300    3.22910500   -1.85072200
 H                 -7.47201800    3.49159700   -0.79097000
 H                 -8.36712900    3.51075700   -2.32114400
 H                 -6.62880800    3.82879600   -2.30817300
 C                 -7.13361800    1.38898400   -3.52643500
 H                 -6.34119500    1.93661800   -4.04280700
 H                 -8.08688500    1.65265300   -3.99568300
 H                 -6.95904300    0.32028000   -3.67988400
 C                 -4.54549300   -4.25988200    2.90225400
 C                 -3.57087200   -5.22768700    3.57096500
 H                 -2.84957100   -5.63394900    2.85592100
 H                 -4.12735000   -6.06780900    3.99573500
 H                 -3.01842600   -4.74884800    4.38437000
 C                 -5.30230700   -5.02117800    1.80279700
 H                 -6.05607300   -4.39563500    1.31814300
 H                 -5.81169600   -5.88995900    2.23158200
 H                 -4.61125400   -5.37467000    1.03188800
 C                 -5.54066900   -3.76510200    3.96163500
 H                 -5.02128100   -3.22061200    4.75527900
 H                 -6.06136800   -4.61563500    4.41283700
 H                 -6.29404000   -3.09925800    3.53325900
 C                 -0.37123200   -1.60865100    1.87240900
 C                  0.53563800   -2.67105400    1.62666500
 H                  0.14525500   -3.67353800    1.47491200
 C                  1.87486200   -2.43141000    1.45445300
 H                  2.54651700   -3.23335600    1.17267000
 C                  2.41149300   -1.12186700    1.59971000
 C                  1.53221700   -0.09628400    2.02125200
 H                  1.94059100    0.88945800    2.20581600
 C                  0.18026900   -0.32109100    2.10443000
 H                 -0.48260300    0.48207400    2.40999700
 C                  3.75736500   -0.80607200    1.23784200
 C                  5.69494000   -1.34682300    0.18718700
 C                  5.40286700    0.73967200    1.00324900
 C                  6.51338100   -2.32632700   -0.56506600
 C                  6.03051800   -3.61481200   -0.80923200
 H                  5.05426100   -3.87907100   -0.42017600
 C                  6.78904100   -4.52405800   -1.53141300
 H                  6.40592800   -5.52308500   -1.71346500
 C                  8.04115300   -4.15938300   -2.01997000
 H                  8.63452600   -4.87153000   -2.58424700
 C                  8.52821300   -2.87929300   -1.77955900
 H                  9.50426800   -2.59072600   -2.15614700
 C                  7.76993100   -1.96749600   -1.05701000
 H                  8.13196100   -0.96583800   -0.85959000
 C                  5.88336500    2.12783900    1.18409400
 C                  7.11247900    2.52811500    0.65842600
 H                  7.71876600    1.78952500    0.14791300
 C                  7.53531100    3.84563300    0.78421500
 H                  8.49180700    4.14710100    0.36944300
 C                  6.73808300    4.77699000    1.44010800
 H                  7.06990200    5.80549900    1.53897600
 C                  5.51368000    4.38123500    1.97479200
 H                  4.89083600    5.10180200    2.49585600
 C                  5.08936700    3.06743500    1.84724800
 H                  4.13680100    2.74128900    2.00000000

C H N
6-311g(d,p)
****
Pd
SDD
****

Pd
SDD



