%nprocshared=96
%mem=50GB
%chk=IM2.chk
# opt freq 6-31g(d) m062x

Title Card Required

0 2
 C                 -2.76054400   -0.89484800   -1.51512800
 C                 -1.56472100   -0.52055600   -0.85408700
 C                 -1.57327500   -0.35347000    0.57064000
 C                 -2.72046100   -0.55626500    1.33968600
 C                 -3.87101000   -0.92704500    0.65720700
 C                 -3.88994900   -1.09275700   -0.75099200
 H                 -2.76498000   -1.02138500   -2.59234600
 H                 -2.71475900   -0.42828200    2.41676800
 H                 -4.78542100   -1.09576800    1.21643700
 H                 -4.81881200   -1.38459100   -1.22962400
 N                 -0.31942400    0.03574600    0.91758100
 N                 -0.35888400   -0.25755800   -1.36798700
 C                  0.48803100   -0.00194800   -0.27038800
 C                  0.09776600    0.27750300    2.28627100
 H                 -0.45746300    1.12722600    2.69606200
 H                 -0.08003100   -0.61167500    2.89681700
 H                  1.16265100    0.49895300    2.31295200
 S                  1.66827600   -1.60846400   -0.09165100
 O                  1.37258200   -2.65194600   -1.07955100
 O                  1.69093100   -1.97635700    1.33425800
 C                  3.19470200   -0.72858400   -0.46947100
 C                  2.91850500    0.68557300    0.03022100
 H                  3.32932200   -0.76576100   -1.55310300
 H                  4.01180000   -1.24529900    0.03709000
 C                  1.53542200    1.10888300   -0.50007200
 H                  2.95822300    0.71234600    1.12448200
 H                  3.68112200    1.37420900   -0.34145300
 C                  1.08238700    2.48035500    0.00145800
 H                  1.61820600    1.15566100   -1.59328800
 H                  0.99788800    2.47562300    1.09553000
 H                  1.87855300    3.19686000   -0.23977700
 C                 -0.23119500    2.96265900   -0.61430200
 C                 -0.58291300    4.37695900   -0.15997200
 H                 -1.04296600    2.27742900   -0.34178500
 H                 -0.15022800    2.92890400   -1.70799800
 H                 -1.52442800    4.71448500   -0.60190900
 H                 -0.68725900    4.42062600    0.92942000
 H                  0.19974400    5.08622600   -0.44909400


