%nprocshared=96
%mem=10GB
%chk=IM3.chk
# opt freq 6-31g(d) m062x

Title Card Required

0 2
 C                 -2.88745700   -2.04386900   -1.42635200
 C                 -2.04725300   -1.09636600   -0.82926200
 C                 -2.23945700   -0.73585300    0.51788100
 C                 -3.25795200   -1.28153000    1.30255200
 C                 -4.08005200   -2.21813100    0.69166000
 C                 -3.89777700   -2.59571300   -0.65354900
 H                 -2.74422800   -2.32854200   -2.46394900
 H                 -3.41004600   -0.98999500    2.33672700
 H                 -4.88499800   -2.66831100    1.26375700
 H                 -4.56542100   -3.33174100   -1.08992900
 N                 -1.25312600    0.19336600    0.79054100
 N                 -0.98190500   -0.39033000   -1.35891800
 C                 -0.54583200    0.36647700   -0.37702100
 C                 -1.10953400    0.88713100    2.05948200
 H                 -1.63919400    1.84452600    2.04903300
 H                 -1.52564100    0.25682700    2.84623400
 H                 -0.05747700    1.05677000    2.28473100
 S                  3.80579400   -1.26441500    0.33650800
 O                  4.06691100   -2.58153000   -0.27902800
 O                  4.80998300   -0.18614300    0.22467600
 C                  2.25418000   -0.63755800   -0.40761100
 C                  1.90028800    0.73644400    0.13753600
 H                  1.50570800   -1.40269600   -0.19013200
 H                  2.45488400   -0.62772900   -1.48409500
 C                  0.63161500    1.29043100   -0.53838900
 H                  1.76937400    0.68379000    1.22415200
 H                  2.72629000    1.42756200   -0.05554000
 C                  0.35875600    2.74262800   -0.11353300
 H                  0.81126300    1.29237800   -1.62013100
 H                  0.35059900    2.83279700    0.97941800
 H                  1.20407100    3.35033400   -0.45957800
 C                 -0.94011500    3.30789700   -0.68635300
 C                 -1.13629100    4.77563300   -0.31654300
 H                 -1.79228800    2.71986400   -0.32067100
 H                 -0.93295300    3.19186800   -1.77755900
 H                 -2.07005000    5.16867300   -0.72784100
 H                 -1.16780900    4.90058700    0.77119600
 H                 -0.31342600    5.38808100   -0.69948300


