%nprocshared=96
%mem=50GB
%chk=IM4.chk
# opt freq 6-31g(d) m062x

Title Card Required

0 2
 C                  5.64083200   -1.21317300   -0.54047300
 C                  4.58234400   -0.43450000   -0.04866500
 C                  3.82703300   -0.87480800    1.05727300
 C                  4.09307200   -2.08508800    1.70934100
 C                  5.13712000   -2.84027300    1.20430300
 C                  5.90240800   -2.41293900    0.09413500
 H                  6.21915700   -0.87671700   -1.39447500
 H                  3.51531700   -2.42248400    2.56346500
 H                  5.37869100   -3.78723400    1.67585700
 H                  6.71064900   -3.04392200   -0.26037500
 N                  4.09275400    0.76991400   -0.50921000
 N                  2.85788300    0.08523800    1.25188900
 C                  1.81877500    0.05987700    2.27469800
 H                  2.05302900    0.75859500    3.07788700
 H                  0.85180100    0.31818500    1.83917300
 H                  1.76378500   -0.95438800    2.66877500
 C                  3.09193400    1.02508800    0.28790800
 S                  2.19474900    2.56580600    0.18514800
 O                  3.00136000    3.47149000   -0.62882400
 O                  1.85291700    2.94163800    1.56030400
 C                  0.67623300    2.21276600   -0.70033200
 C                 -0.05288300    3.55203400   -0.91533100
 H                  0.08477500    1.53813400   -0.07435700
 H                  0.95036400    1.72236700   -1.63886400
 C                 -1.41051600    3.36167700   -1.50180100
 H                 -0.13652700    4.06250800    0.04980800
 H                  0.56426100    4.17666700   -1.57328000
 C                 -2.62621100    3.74796600   -0.75510100
 H                 -1.51170500    2.89134600   -2.47339000
 H                 -3.51314800    3.85681600   -1.38431100
 H                 -2.49268500    4.66094700   -0.16218700
 S                 -3.06700100    2.50906900    0.51014700
 C                 -3.48859100    1.06568800   -0.45586400
 O                 -1.84939700    2.19882100    1.27934000
 O                 -4.25189200    2.97371900    1.24266200
 C                 -3.76951500   -0.14093400    0.43644000
 H                 -2.62922300    0.88242400   -1.11030500
 H                 -4.35372400    1.33078700   -1.07000000
 H                 -4.77342200   -0.06233300    0.86323400
 C                 -3.63859800   -1.44276000   -0.38418600
 H                 -3.05736200   -0.15792900    1.27023800
 C                 -2.19703100   -1.64830900   -0.76071400
 C                 -4.31485100   -2.64085400    0.30629500
 H                 -4.14613300   -1.28506600   -1.34402800
 N                 -1.70750500   -1.26171600   -1.91903000
 N                 -1.24168700   -2.17230200    0.07780600
 C                 -1.39865700   -2.68621200    1.42878800
 H                 -2.05961700   -2.03938100    2.00640000
 H                 -1.79668400   -3.70355500    1.42412200
 H                 -0.42081700   -2.68797400    1.91107900
 H                 -3.88063700   -3.57660300   -0.06853900
 H                 -4.12662800   -2.61577400    1.38663700
 C                 -5.82518700   -2.66508400    0.06687000
 C                 -0.04731000   -2.13884100   -0.61664000
 C                 -0.35637900   -1.55236200   -1.85919100
 H                 -6.26636300   -1.71130100    0.38211000
 H                 -6.01336100   -2.75384100   -1.01002500
 C                 -6.50459400   -3.81292600    0.80863400
 C                  1.24041400   -2.57095200   -0.29343700
 C                  0.65247300   -1.35026000   -2.80864800
 H                 -6.35601700   -3.72112000    1.88957400
 H                 -7.58088800   -3.82887400    0.61632700
 H                 -6.09122900   -4.77730700    0.49512000
 C                  2.22346100   -2.37735900   -1.25441200
 H                  1.47254000   -3.04913700    0.65387900
 C                  1.93782900   -1.76393600   -2.48964200
 H                  0.42308800   -0.88823200   -3.76384200
 H                  3.23745000   -2.70610500   -1.04469000
 H                  2.74165000   -1.62194400   -3.20528000


