%nprocshared=96
%mem=10GB
%chk=IM6.chk
# opt freq 6-31g(d) m062x

Title Card Required

0 2
 C                 -5.19528500   -2.80470700    2.02261000
 C                 -4.81500200   -1.70806400    1.23984000
 C                 -4.70745600   -0.43127100    1.82282900
 C                 -4.97907500   -0.19808600    3.17295400
 C                 -5.35513300   -1.29807700    3.93114400
 C                 -5.46100900   -2.58417800    3.36551500
 H                 -5.27782600   -3.79257200    1.58051500
 H                 -4.90730400    0.79042700    3.61484300
 H                 -5.57553900   -1.16315300    4.98524700
 H                 -5.75904400   -3.41521800    3.99674700
 N                 -4.50283600   -1.63985100   -0.10621500
 N                 -4.30724700    0.40471700    0.79716300
 C                 -4.13034400    1.84095300    0.93204800
 H                 -5.03949700    2.37989300    0.64880700
 H                 -3.89319500    2.06303700    1.97313000
 H                 -3.29905400    2.18319800    0.31678400
 C                 -4.21766000   -0.37705600   -0.33186900
 S                  0.28850200   -0.62964500   -1.64998500
 O                  0.92663400   -1.93729500   -1.45243600
 O                  0.51407400    0.07070200   -2.92346800
 C                 -1.47637400   -0.83667300   -1.40665900
 C                 -2.28969800    0.40180700   -1.76518800
 H                 -1.61040900   -1.15715900   -0.36874600
 H                 -1.72571200   -1.68439500   -2.05484000
 C                 -3.80239100    0.12182500   -1.68993900
 H                 -2.02706800    1.23528800   -1.10408500
 H                 -2.04255600    0.71093000   -2.78560200
 C                 -4.62114800    1.31811100   -2.20145300
 H                 -4.01105400   -0.72751400   -2.35121300
 H                 -4.31587100    2.24231400   -1.69589000
 H                 -4.37138600    1.45802500   -3.26057600
 C                 -6.13026800    1.12720600   -2.05722000
 C                 -6.91361100    2.29322300   -2.65407800
 H                 -6.38894400    1.01573700   -0.99589300
 H                 -6.42262200    0.18826700   -2.54423100
 H                 -7.99149400    2.14858800   -2.54084200
 H                 -6.64564000    3.23352500   -2.16029800
 H                 -6.69721300    2.40309800   -3.72175700
 C                  0.81646500    0.47486100   -0.33249500
 H                  0.16326100    1.35112800   -0.37536200
 C                  2.28413900    0.89032900   -0.51907800
 H                  2.41261600    1.26195200   -1.54056400
 C                  2.58226200    2.03846500    0.46058900
 H                  2.40969000    1.69538900    1.48438700
 H                  1.90545900    2.87150800    0.24898500
 H                  0.67323800   -0.05032100    0.61595300
 C                  4.02804200    2.50712300    0.32504000
 H                  4.74311400    1.74431400    0.63981600
 H                  4.26925000    2.86473900   -0.67857200
 C                  3.20939500   -0.26945400   -0.25741400
 C                  4.34184400   -1.74939400    0.79033900
 C                  4.57848300   -1.95814400   -0.58172200
 C                  4.95609300   -2.57843100    1.73701000
 C                  5.40518500   -2.97715500   -1.05986600
 C                  5.78037000   -3.59231400    1.27285200
 H                  4.78353000   -2.42569700    2.79759600
 C                  6.00072500   -3.78951700   -0.10567400
 H                  5.57369200   -3.12834300   -2.12136400
 H                  6.26795700   -4.25235100    1.98320600
 H                  6.65130900   -4.59641200   -0.42738100
 N                  3.48199800   -0.67971300    0.95989500
 N                  3.84813300   -0.98640900   -1.23320200
 C                  3.72820400   -0.90343000   -2.67814700
 H                  4.71448900   -0.74636800   -3.12101900
 H                  3.29371900   -1.83124500   -3.05849500
 H                  3.07020500   -0.08181700   -2.95516400
 S                  4.30746000    3.93213900    1.43464400
 O                  4.10804100    3.44074600    2.81417900
 O                  3.47545800    5.04239500    0.92498300

