%nprocshared=96
%mem=50GB
%chk=M1.chk
# opt freq 6-31g(d) m062x

Title Card Required

0 1
 C                 -3.04209600    2.54288300   -0.44434400
 C                 -2.47706900    1.27529200   -0.24656800
 C                 -3.28550900    0.19539000    0.16260700
 C                 -4.65840400    0.32890300    0.39393400
 C                 -5.19492600    1.58957400    0.19346900
 C                 -4.40014800    2.68150000   -0.22023600
 H                 -2.42498800    3.37711700   -0.76068500
 H                 -5.27148300   -0.50528300    0.71773200
 H                 -6.25576900    1.74438800    0.36099000
 H                 -4.87037400    3.64886700   -0.36236800
 N                 -2.43720700   -0.88977400    0.25344100
 N                 -1.16408100    0.85804700   -0.39094200
 C                 -1.20877500   -0.40783200   -0.08129500
 C                 -2.78868000   -2.23772800    0.68025900
 H                 -2.10756800   -2.95152800    0.21666800
 H                 -2.73334600   -2.32193800    1.76722800
 H                 -3.80261700   -2.45290000    0.34188100
 S                  0.23410100   -1.45788800   -0.07147600
 O                  0.08657900   -2.44505400   -1.14644300
 O                  0.40468100   -1.95655000    1.29694200
 C                  1.56374100   -0.33190700   -0.47432600
 C                  2.88787200   -1.12098000   -0.52142100
 H                  1.56821800    0.43826900    0.30084400
 H                  1.31671800    0.12174700   -1.43674700
 C                  4.02587100   -0.20416400   -0.82838500
 H                  3.03710400   -1.60161800    0.45354300
 H                  2.80158700   -1.90761300   -1.27709100
 C                  4.50202545    0.65895319    0.10160032
 H                  4.27437900   -0.02754200   -1.87166000
 H                  5.10379689    1.45366916   -0.37597268
 H                  4.16603688    0.34651515    1.10105711

