%nprocshared=96
%mem=10GB
%chk=TS1.chk
# opt=(calcfc,ts,noeigen) freq 6-31g(d) m062x

Title Card Required

0 2
 C                 -2.65744400   -1.69011700   -1.35703200
 C                 -1.53693500   -1.21077600   -0.65642600
 C                 -1.72042400   -0.44659200    0.52067200
 C                 -2.98423600   -0.12334900    1.02126600
 C                 -4.07276700   -0.60932600    0.31202100
 C                 -3.91100100   -1.38282400   -0.85873500
 H                 -2.52880000   -2.27952600   -2.25869500
 H                 -3.10864000    0.47310100    1.91912000
 H                 -5.07520400   -0.38919100    0.66426700
 H                 -4.79483600   -1.73881100   -1.37795500
 N                 -0.46103900   -0.13384100    0.97319500
 N                 -0.20457900   -1.36785000   -0.91602500
 C                  0.41371400   -0.62616700    0.01113600
 C                 -0.21471800    0.68444000    2.15215100
 H                 -0.63653600    1.68466100    2.00787200
 H                 -0.69660300    0.21516000    3.01363500
 H                  0.85507700    0.75362300    2.33008100
 S                  2.08804200   -1.15844600    0.43760000
 O                  2.08846400   -2.58916200    0.74388100
 O                  2.62829500   -0.22837100    1.43791900
 C                  2.86685700   -0.83135100   -1.13494100
 C                  2.65387500    0.65992900   -1.38803500
 H                  2.36055300   -1.46825100   -1.86466500
 H                  3.91561000   -1.12338900   -1.04276500
 C                  1.20364600    1.04904700   -1.20668500
 H                  3.28071600    1.22689600   -0.69336400
 H                  2.98727300    0.89677800   -2.40591100
 C                  0.92231600    2.35655000   -0.52952300
 H                  0.54734200    0.79200200   -2.03669900
 H                  1.25760500    2.30878700    0.51755000
 H                  1.56459000    3.12560100   -0.99320200
 C                 -0.53108900    2.81963200   -0.61871600
 C                 -0.76031100    4.13512900    0.12036400
 H                 -1.19852000    2.04564800   -0.22081400
 H                 -0.79774400    2.93527700   -1.67638200
 H                 -1.80007700    4.46301400    0.03825200
 H                 -0.52183100    4.03385500    1.18520500
 H                 -0.12229700    4.92664400   -0.28682600


