%nprocshared=96
%mem=10GB
%chk=TS2.chk
# opt=(calcfc,ts,noeigen) freq 6-31g(d) m062x

Title Card Required

0 2
 C                 -2.84971400   -0.61393000   -1.51832200
 C                 -1.63322200   -0.32044200   -0.85933200
 C                 -1.62347300   -0.16680200    0.56167300
 C                 -2.77630000   -0.30632800    1.33855300
 C                 -3.94986300   -0.59741100    0.66000800
 C                 -3.98583400   -0.74791500   -0.74953200
 H                 -2.86783900   -0.73062800   -2.59656600
 H                 -2.75582100   -0.18950800    2.41675900
 H                 -4.87045700   -0.71418100    1.22242600
 H                 -4.93344000   -0.97682600   -1.22564200
 N                 -0.34049600    0.13676000    0.90043600
 N                 -0.40521000   -0.12980800   -1.37175300
 C                  0.43769100    0.04283300   -0.28373900
 C                  0.10821300    0.31865500    2.26922400
 H                 -0.34725100    1.22001300    2.69026600
 H                 -0.16462400   -0.55281600    2.86947600
 H                  1.19087500    0.41992000    2.29143400
 S                  1.43089500   -1.81841700   -0.09232200
 O                  1.04763000   -2.82946800   -1.08881300
 O                  1.39314000   -2.18621400    1.33656100
 C                  3.05789900   -1.12018100   -0.44750500
 C                  2.95834600    0.31394900    0.05923200
 H                  3.19501400   -1.16826400   -1.53037700
 H                  3.80391500   -1.73314600    0.06201200
 C                  1.66349400    0.94309500   -0.49088900
 H                  2.98153100    0.32632000    1.15398000
 H                  3.81629500    0.89421200   -0.28965300
 C                  1.43037000    2.37337900    0.00383100
 H                  1.76757500    0.97467700   -1.58278300
 H                  1.35092600    2.38839400    1.09843900
 H                  2.32585600    2.95748400   -0.24530600
 C                  0.20182000    3.04444700   -0.61027700
 C                  0.06619800    4.49719600   -0.16167400
 H                 -0.70183400    2.48781100   -0.33209500
 H                  0.27295400    2.99409300   -1.70399000
 H                 -0.81598200    4.96925500   -0.60280100
 H                 -0.02675500    4.56079600    0.92774000
 H                  0.94477500    5.08057300   -0.45643700

