%nprocshared=96
%mem=50GB
%chk=TS3.chk
# opt=(calcfc,ts,noeigen,maxstep=3) freq 6-31g(d) m062x

Title Card Required

0 2
 C                 -4.89866500   -2.40059500   -0.11835800
 C                 -4.02777200   -1.34202500   -0.41758600
 C                 -2.98971400   -1.52276600   -1.35455500
 C                 -2.77847900   -2.73632800   -2.02040800
 C                 -3.65056900   -3.76564000   -1.70949900
 C                 -4.69555700   -3.60194000   -0.77231500
 H                 -5.69709600   -2.26804500    0.60396400
 H                 -1.97431000   -2.86778200   -2.73708400
 H                 -3.52752700   -4.72676300   -2.19769600
 H                 -5.34894900   -4.44247200   -0.56370700
 N                 -3.98810400   -0.05874400    0.09347000
 N                 -2.32389400   -0.31609700   -1.40975900
 C                 -1.18158900   -0.01695000   -2.26633400
 H                 -1.31877800   -0.53621900   -3.21590300
 H                 -1.13231100    1.05513600   -2.45236000
 H                 -0.24737500   -0.34117300   -1.80030200
 C                 -2.97470200    0.48927400   -0.51653300
 S                 -2.51226600    2.19204800   -0.22897700
 O                 -3.40899100    2.71878300    0.79560900
 O                 -2.46303800    2.84612400   -1.54161200
 C                 -0.84590900    2.10257200    0.42508700
 C                 -0.21862600    3.50235800    0.38393500
 H                 -0.27518500    1.41100000   -0.20276100
 H                 -0.93559700    1.70755000    1.44150400
 C                  1.21795000    3.45316900    0.79592900
 H                 -0.30139600    3.91057800   -0.62780400
 H                 -0.77859400    4.16195600    1.06055400
 C                  2.22879800    3.95929300    0.01273000
 H                  1.45901900    2.93651200    1.72387900
 H                  3.23609000    4.04370300    0.41394400
 H                  1.98348500    4.63976700   -0.80086400
 S                  2.71249400    2.22289100   -1.45553300
 C                  3.52012000    1.09478700   -0.29818900
 O                  1.39509600    1.63315300   -1.78959800
 O                  3.63911900    2.52845200   -2.56575200
 C                  3.45037600   -0.36874000   -0.73440600
 H                  2.97604700    1.24847400    0.63981700
 H                  4.54356900    1.45762800   -0.17850300
 H                  4.30569800   -0.61423000   -1.36938900
 C                  3.42550300   -1.29033600    0.50782500
 H                  2.54279000   -0.53573800   -1.32628600
 C                  2.14385700   -1.05425200    1.25802900
 C                  3.72408400   -2.75791400    0.15249700
 H                  4.20757100   -0.94867200    1.19701400
 N                  2.07062100   -0.23899200    2.28824700
 N                  0.91765000   -1.54979600    0.87843700
 C                  0.60551800   -2.51554300   -0.16311500
 H                  1.15179800   -2.28326800   -1.07843200
 H                  0.84640600   -3.53275500    0.15446400
 H                 -0.46394200   -2.45630700   -0.37617000
 H                  3.32054300   -3.41608400    0.93260100
 H                  3.22377200   -3.03388700   -0.78383700
 C                  5.22379000   -3.02214100    0.00944600
 C                 -0.01042900   -1.01263600    1.75035900
 C                  0.72944700   -0.18840600    2.62042900
 H                  5.65480400   -2.32938800   -0.72390900
 H                  5.71562600   -2.80801700    0.96608100
 C                  5.51416500   -4.45969600   -0.41299400
 C                 -1.39676700   -1.14315500    1.84247800
 C                  0.07507100    0.54187000    3.62004300
 H                  5.05999600   -4.68006500   -1.38463700
 H                  6.58947600   -4.64036900   -0.49467000
 H                  5.10680900   -5.16904200    0.31504900
 C                 -2.03069500   -0.40054900    2.83100100
 H                 -1.96388800   -1.79162400    1.18007800
 C                 -1.30594000    0.42843800    3.71033800
 H                  0.63938300    1.18037800    4.29258500
 H                 -3.11084900   -0.45873700    2.91879900
 H                 -1.84174400    0.98933400    4.46921100

