%nprocshared=96
%mem=10GB
%chk=IM1.chk
# opt freq 6-31g(d) m062x

Title Card Required

0 2
 C                 -3.71502200    1.19738900   -1.60052000
 C                 -2.88296800    0.50092100   -0.70775900
 C                 -3.22385800    0.42489800    0.66302500
 C                 -4.38452500    1.03117900    1.15976200
 C                 -5.19115400    1.71370700    0.26139100
 C                 -4.86049700    1.79693000   -1.10666400
 H                 -3.44447100    1.25021800   -2.65513400
 H                 -4.64446600    0.96947300    2.21648200
 H                 -6.10035700    2.19602700    0.62223800
 H                 -5.51957300    2.34190500   -1.78307200
 S                 -2.01914100   -0.49060400    1.52103500
 N                 -1.71213900   -0.15172900   -1.04435700
 C                 -1.19743900   -0.68956000   -0.00104400
 S                  0.33596400   -1.61930400   -0.05833100
 O                  0.24833100   -2.57451300   -1.15660600
 O                  0.55894300   -2.09564100    1.30517100
 C                  1.56338500   -0.38772000   -0.46811000
 C                  2.93975800   -1.06555600   -0.58701600
 H                  1.52737100    0.35435100    0.34147800
 H                  1.23421600    0.06718500   -1.41239600
 C                  4.00697300   -0.07094700   -0.90185700
 H                  3.15300900   -1.56750800    0.37136300
 H                  2.87681300   -1.83790000   -1.36637300
 C                  4.50891500    0.87798200    0.13239200
 H                  4.22446100    0.14037600   -1.95277400
 H                  3.79322200    1.71678700    0.26820600
 H                  4.54489600    0.36930900    1.11294300
 C                  5.88101400    1.46686400   -0.19764200
 C                  6.37146900    2.44783100    0.85991000
 H                  5.82612500    1.96807200   -1.17796300
 H                  6.60397500    0.64338700   -0.31351500
 H                  7.35758600    2.85835900    0.60240200
 H                  5.67240000    3.29082600    0.96822700
 H                  6.45609900    1.95748000    1.84139700

