%nprocshared=96
%mem=10GB
%chk=IM2.chk
# opt freq 6-31g(d) m062x

Title Card Required

0 2
 C                 -2.70611000   -0.72510800   -1.52211600
 C                 -1.57996200   -0.42229800   -0.70462200
 C                 -1.76903000   -0.29671400    0.71564700
 C                 -3.02166100   -0.47548100    1.29605200
 C                 -4.10011600   -0.77434800    0.46509600
 C                 -3.94030100   -0.89774600   -0.93408700
 H                 -2.55973600   -0.81735900   -2.59828300
 H                 -3.15782200   -0.38243900    2.37352100
 H                 -5.08767200   -0.91629700    0.90536500
 H                 -4.80759600   -1.13436200   -1.55105600
 S                 -0.27108700    0.09940600    1.49533500
 N                 -0.34870700   -0.21716200   -1.16403800
 C                  0.58290900   -0.03043500   -0.13905100
 S                  1.66763200   -1.67034100   -0.05106600
 O                  1.21293500   -2.62644900   -1.05337000
 O                  1.77618900   -2.09030900    1.34570700
 C                  3.21148400   -0.85488100   -0.49067800
 C                  3.02097100    0.54737500    0.06624700
 H                  3.28823600   -0.87197600   -1.58517000
 H                  4.01456800   -1.44305200   -0.03115800
 C                  1.65630500    1.04312700   -0.43253700
 H                  3.05263100    0.52659200    1.16733400
 H                  3.81812300    1.21743700   -0.28080400
 C                  1.30134200    2.44515600    0.05252400
 H                  1.69937100    1.05997600   -1.53412000
 H                  1.25713200    2.45473400    1.15470200
 H                  2.13404300    3.11043400   -0.23026700
 C                 -0.00039000    2.99514200   -0.52339200
 C                 -0.26696300    4.42819000   -0.07787800
 H                 -0.84127000    2.35268800   -0.21467000
 H                  0.04132600    2.94200900   -1.62390200
 H                 -1.20608900    4.81210400   -0.49921600
 H                 -0.33891800    4.48926500    1.01846100
 H                  0.54604500    5.09752600   -0.39669800

