%nprocshared=96
%mem=10GB
%chk=IM3.chk
# opt freq 6-31g(d) m062x

Title Card Required

0 2
 C                 -3.07699500   -1.58996100   -1.48952300
 C                 -2.18953300   -0.82132500   -0.72171200
 C                 -2.36842200   -0.73772400    0.67614100
 C                 -3.41479600   -1.40448600    1.32117400
 C                 -4.28276400   -2.16045100    0.54240100
 C                 -4.11552400   -2.25267700   -0.85126000
 H                 -2.93444400   -1.65184800   -2.56878400
 H                 -3.54589000   -1.33398400    2.40124700
 H                 -5.10685000   -2.69035400    1.02174300
 H                 -4.81278700   -2.85372400   -1.43609400
 S                 -1.12784900    0.27907300    1.35093000
 N                 -1.11046900   -0.10724900   -1.21658100
 C                 -0.47816200    0.50466800   -0.27678600
 S                  3.75045700   -1.45682500    0.27841300
 O                  3.88903100   -2.78422700   -0.34868800
 O                  4.82182600   -0.45424500    0.11829000
 C                  2.21598700   -0.71566000   -0.39377600
 C                  1.98531200    0.67905800    0.15541300
 H                  1.42784100   -1.43521100   -0.13421100
 H                  2.38056000   -0.73223700   -1.48193500
 C                  0.75219600    1.34532700   -0.47598400
 H                  1.86180500    0.63682300    1.24990900
 H                  2.86743100    1.30156200   -0.05087900
 C                  0.56638400    2.76967800    0.06154800
 H                  0.89428800    1.38948200   -1.56736500
 H                  0.44695800    2.73171400    1.15923100
 H                  1.49662000    3.32953500   -0.12723700
 C                 -0.61459300    3.50855700   -0.55943100
 C                 -0.73214600    4.94268300   -0.05679500
 H                 -1.54581600    2.96148600   -0.33662800
 H                 -0.50708000    3.50085100   -1.65661900
 H                 -1.58991900    5.45772200   -0.51048500
 H                 -0.86355800    4.96540300    1.03538900
 H                  0.17387200    5.51921100   -0.29597500

