%nprocshared=96
%mem=50GB
%chk=IM4-scan.chk
# opt=modredundant 6-31g(d) m062x

Title Card Required

0 2
 C                 -5.33272200   -0.84073200    1.30723500
 C                 -4.50998200   -0.23199300    0.35010200
 C                 -4.45118700   -0.74407500   -0.96296200
 C                 -5.19554300   -1.86821100   -1.33317500
 C                 -5.99520400   -2.46405800   -0.37103800
 C                 -6.06536400   -1.95432400    0.93933900
 H                 -5.37422200   -0.42769300    2.30963400
 H                 -5.14858500   -2.26272000   -2.34273000
 H                 -6.58186600   -3.33821500   -0.63457500
 H                 -6.70686300   -2.44189900    1.66589200
 S                 -3.34597600    0.19945800   -1.91788300
 N                 -3.70080300    0.86680700    0.58397600
 C                 -3.07349400    1.17219300   -0.49225300
 S                 -2.00224200    2.61341600   -0.61250300
 O                 -2.68983700    3.72775800    0.02423900
 O                 -1.60332300    2.67081900   -2.01461600
 C                 -0.58351200    2.17895700    0.40703700
 C                  0.18704200    3.46569000    0.73664600
 H                  0.02579300    1.48141100   -0.17545100
 H                 -0.98008000    1.68984900    1.30284800
 C                  1.36451800    3.18804600    1.60955800
 H                  0.51614200    3.92508000   -0.20100900
 H                 -0.50605400    4.16192100    1.22828400
 C                  2.72965200    3.58961100    1.21461600
 H                  1.22124700    2.63716300    2.53368300
 H                  3.45019000    3.59100400    2.03672400
 H                  2.76243100    4.56610500    0.71497400
 S                  3.42530900    2.48478500   -0.06747500
 C                  3.57305000    0.90909700    0.77623300
 O                  2.40232800    2.32977300   -1.10529200
 O                  4.76171200    2.96600400   -0.41331200
 C                  3.98976000   -0.16916300   -0.21992100
 H                  2.59460800    0.69480400    1.21656800
 H                  4.31072600    1.03434200    1.57471200
 H                  5.03317900   -0.00658100   -0.50461200
 C                  3.81123700   -1.58736100    0.36383200
 H                  3.38325300   -0.07802000   -1.12938700
 C                  2.33841800   -1.85741500    0.52951700
 C                  4.51251800   -2.64989400   -0.49403500
 H                  4.23654600   -1.60905800    1.37608500
 S                  1.42085000   -2.66072600   -0.74973400
 N                  1.64800800   -1.45739500    1.54411400
 H                  4.18205000   -3.64424100   -0.16772200
 H                  4.19295400   -2.54249800   -1.54118200
 C                  6.03871600   -2.59496800   -0.42229700
 C                 -0.02404300   -2.42926300    0.19267100
 C                  0.30401900   -1.76394700    1.38886900
 H                  6.40322300   -1.62647400   -0.78240000
 H                  6.35032600   -2.67575000    0.62689900
 C                  6.68474600   -3.71108100   -1.23984700
 C                 -1.33559900   -2.81853600   -0.08657900
 C                 -0.70106100   -1.46079100    2.31562100
 H                  6.40244700   -3.63510800   -2.29491900
 H                  7.77541500   -3.66708000   -1.18031900
 H                  6.36650000   -4.69469100   -0.87941900
 C                 -2.31582600   -2.52311200    0.84857400
 H                 -1.58223700   -3.33864600   -1.00655700
 C                 -2.00255300   -1.83934700    2.03538400
 H                 -0.43813600   -0.94431400    3.23311300
 H                 -3.34271100   -2.82220800    0.65935800
 H                 -2.79632200   -1.61009200    2.73945800

B 28 24 S 40 0.050000

