%nprocshared=96
%mem=10GB
%chk=IM4.chk
# opt freq 6-31g(d) m062x

Title Card Required

0 2
 C                 -5.55263900   -0.71379200    0.95081900
 C                 -4.53687600   -0.17378300    0.14458000
 C                 -4.18387300   -0.80859800   -1.06854500
 C                 -4.82468500   -1.97925600   -1.49196700
 C                 -5.82149100   -2.49912400   -0.67877100
 C                 -6.18342900   -1.87300300    0.53230600
 H                 -5.81633400   -0.21773600    1.88510200
 H                 -4.54614100   -2.46900100   -2.42504900
 H                 -6.33550600   -3.41157100   -0.98320600
 H                 -6.97153600   -2.31129000    1.14522400
 S                 -2.88806800    0.06097100   -1.83232500
 N                 -3.80121600    0.95772000    0.43690700
 C                 -2.94246100    1.16989600   -0.49053700
 S                 -1.88822600    2.62399300   -0.50373400
 O                 -2.65407300    3.71463400    0.08859900
 O                 -1.39394100    2.73741600   -1.87384000
 C                 -0.51506800    2.24495600    0.57961400
 C                  0.27132800    3.54454300    0.79919400
 H                  0.08730900    1.48882500    0.05641800
 H                 -0.93964600    1.83786100    1.50840300
 C                  1.52236300    3.31766200    1.57757800
 H                  0.51687200    3.97118300   -0.18399800
 H                 -0.38618900    4.25848200    1.32304000
 C                  2.84454200    3.63911400    1.00540000
 H                  1.46377300    2.85958900    2.56635500
 H                  3.66019800    3.67231300    1.73904300
 H                  2.85135600    4.56876500    0.41256200
 S                  3.35763200    2.41532700   -0.24348900
 C                  3.60035000    0.90724400    0.68128100
 O                  2.21929500    2.20360300   -1.14998300
 O                  4.63508300    2.83696700   -0.82180400
 C                  3.89507200   -0.24204300   -0.27425700
 H                  2.66971200    0.74170000    1.24287300
 H                  4.42535500    1.09272900    1.38291600
 H                  4.92354800   -0.14850200   -0.64793100
 C                  3.70052800   -1.61440100    0.40320800
 H                  3.22170700   -0.18143100   -1.14435400
 C                  2.22696900   -1.83003700    0.63107400
 C                  4.34647900   -2.74691500   -0.40252400
 H                  4.16132600   -1.58056900    1.40421000
 S                  1.27761500   -2.78908200   -0.50541800
 N                  1.55327000   -1.28552800    1.58729100
 H                  3.99555000   -3.71254100   -0.00339200
 H                  3.99571300   -2.69392800   -1.44917200
 C                  5.87279500   -2.73430700   -0.37532400
 C                 -0.14797500   -2.41539500    0.41554100
 C                  0.20630600   -1.58735600    1.50241100
 H                  6.25186500   -1.78376000   -0.78130500
 H                  6.21028100   -2.77991400    0.67297700
 C                  6.47125900   -3.89437400   -1.16282300
 C                 -1.46780200   -2.83407300    0.21607800
 C                 -0.78513800   -1.14518500    2.39242800
 H                  6.16443400   -3.85165700   -2.21851800
 H                  7.56914500   -3.87661900   -1.12960200
 H                  6.13581400   -4.86015000   -0.75640600
 C                 -2.43082700   -2.40033700    1.11794600
 H                 -1.73431200   -3.48064200   -0.62107400
 C                 -2.09551600   -1.55266300    2.19013700
 H                 -0.50690900   -0.49822500    3.22540500
 H                 -3.46776400   -2.71519600    0.98561000
 H                 -2.87942700   -1.21701200    2.87107700

