%nprocshared=96
%mem=10GB
%chk=IM6.chk
# opt freq 6-31g(d) m062x

Title Card Required

0 2
 C                 -5.62916700   -0.55245500    3.10469100
 C                 -4.99706500   -0.26798300    1.88519100
 C                 -4.57193000    1.04987900    1.61047700
 C                 -4.76437700    2.08724400    2.52809400
 C                 -5.39251300    1.78433500    3.73031700
 C                 -5.82167600    0.47572300    4.01636700
 H                 -5.95594200   -1.57183100    3.31214900
 H                 -4.43217200    3.10209900    2.30799500
 H                 -5.55439900    2.57605600    4.46287100
 H                 -6.31179300    0.26847000    4.96837200
 S                 -3.83064000    1.09437000    0.03645800
 N                 -4.73510900   -1.18808500    0.88299600
 C                 -4.14707800   -0.63839800   -0.12118900
 S                  0.35058600   -1.62204700   -0.62356700
 O                  1.01188500   -2.45767700    0.38033500
 O                  0.68522000   -1.82274600   -2.03829600
 C                 -1.41851300   -1.80998400   -0.42006700
 C                 -2.20978300   -1.24651100   -1.58961700
 H                 -1.66131700   -1.34069300    0.54570700
 H                 -1.54665000   -2.89742400   -0.31315500
 C                 -3.72536200   -1.35528400   -1.37309700
 H                 -1.94785900   -0.18864900   -1.76012800
 H                 -1.93324100   -1.78933600   -2.50376400
 C                 -4.49080400   -0.84140400   -2.60039600
 H                 -3.98972300   -2.41080400   -1.20239800
 H                 -4.19368300    0.20357400   -2.80036100
 H                 -4.16462400   -1.42841700   -3.47425900
 C                 -6.00698400   -0.92524300   -2.45924000
 C                 -6.73286900   -0.49706400   -3.72927000
 H                 -6.33117600   -0.29196900   -1.61674200
 H                 -6.28796800   -1.95776300   -2.19344100
 H                 -7.82310900   -0.55552400   -3.60744400
 H                 -6.47798900    0.53963800   -3.99570200
 H                 -6.45244500   -1.13817700   -4.57826800
 C                  0.67625400    0.10829500   -0.23329000
 H                 -0.14561700    0.70594400   -0.65237700
 C                  2.01974900    0.53890600   -0.82719600
 H                  1.97809800    0.37400100   -1.91380400
 C                  2.24857300    2.02895500   -0.54056900
 H                  2.29866500    2.18220500    0.54698500
 H                  1.40227200    2.60885000   -0.93541100
 H                  0.67280900    0.18214400    0.86285200
 C                  3.54087800    2.52034700   -1.17966900
 H                  4.43857100    2.05073500   -0.75579600
 H                  3.54513000    2.42948600   -2.27378700
 C                  3.13860200   -0.29020700   -0.24567400
 C                  4.53755600   -1.08633600    1.25783900
 C                  4.94210200   -1.88229600    0.16266100
 C                  5.17217300   -1.24207200    2.50056100
 C                  5.96636500   -2.82805900    0.28426600
 C                  6.18570600   -2.18010000    2.62173800
 H                  4.85662000   -0.62562300    3.34274200
 C                  6.57975100   -2.96637800    1.52225800
 H                  6.27256900   -3.43757000   -0.56627400
 H                  6.68658700   -2.31257100    3.58144600
 H                  7.38019000   -3.69729900    1.64352600
 N                  3.51808100   -0.19492100    0.98108100
 S                  3.98392500   -1.46785800   -1.22664900
 S                  3.73669000    4.30485600   -0.84226300
 O                  3.90736400    4.44510000    0.61685000
 O                  2.61438900    4.99143400   -1.51074600

