%nprocshared=96
%mem=10GB
%chk=M1.chk
# opt freq 6-31g(d) m062x

Title Card Required

0 1
 C                  3.15186700    1.67154800    0.74587800
 C                  2.21869000    0.68688400    0.37964400
 C                  2.59787400   -0.35480000   -0.49905200
 C                  3.89616500   -0.43279000   -1.01869100
 C                  4.80095700    0.54955500   -0.64451400
 C                  4.43349300    1.59290000    0.22970400
 H                  2.85036600    2.46993900    1.42398200
 H                  4.18548600   -1.23728700   -1.69482200
 H                  5.81829600    0.51294900   -1.03588300
 H                  5.17260100    2.34702400    0.50159200
 S                  1.24739900   -1.41641200   -0.77356900
 N                  0.90719500    0.62417600    0.81089400
 C                  0.32783200   -0.39661400    0.29629300
 S                 -1.38820000   -0.79465200    0.63357400
 O                 -1.59396000   -0.74338700    2.07600600
 O                 -1.65950100   -2.02949100   -0.09837400
 C                 -2.28356300    0.55569900   -0.11933400
 C                 -3.78166400    0.35304800    0.11330900
 H                 -2.01764000    0.54361600   -1.18500800
 H                 -1.89836600    1.47050100    0.35280600
 C                 -4.57127200    1.48603200   -0.47775000
 H                 -4.09310400   -0.60300800   -0.33171900
 H                 -3.95761500    0.29431000    1.19884000
 C                 -5.46699300    1.34579400   -1.45358100
 H                 -4.37043800    2.48078800   -0.06440000
 H                 -6.01538600    2.20332000   -1.84796700
 H                 -5.68435700    0.36513500   -1.88623800

