%nprocshared=96
%mem=10GB
%chk=TS1.chk
# opt=(calcfc,ts,noeigen) freq 6-31g(d) m062x

Title Card Required

0 2
 C                 -2.51806400   -1.52447000   -1.47622700
 C                 -1.47713900   -1.09308600   -0.63123600
 C                 -1.79308700   -0.55552000    0.64499900
 C                 -3.11603700   -0.43224100    1.07754200
 C                 -4.12522000   -0.86367100    0.22450600
 C                 -3.82733600   -1.40560300   -1.04112200
 H                 -2.27239400   -1.93817400   -2.45444300
 H                 -3.34969500   -0.01151200    2.05589300
 H                 -5.16517300   -0.78046500    0.54224800
 H                 -4.64227800   -1.73354300   -1.68739100
 S                 -0.33365000   -0.10454300    1.48038700
 N                 -0.14092800   -1.15084300   -0.92308500
 C                  0.56154700   -0.55783600    0.01231800
 S                  2.27301800   -1.07346500    0.30394900
 O                  2.36357800   -2.52598500    0.23358500
 O                  2.67465000   -0.37738600    1.52756500
 C                  3.10021900   -0.31989500   -1.08542900
 C                  2.75242200    1.15843200   -1.01438100
 H                  2.70391600   -0.82176600   -1.97921300
 H                  4.16791800   -0.54796000   -0.96881100
 C                  1.26227100    1.35077400   -0.99577500
 H                  3.20872200    1.59582700   -0.11526400
 H                  3.18099300    1.67481500   -1.89039600
 C                  0.68673300    2.50640300   -0.25090400
 H                  0.74322100    1.04738300   -1.91048900
 H                  0.85646300    2.35705400    0.83205300
 H                  1.27250300    3.41123300   -0.50781300
 C                 -0.79261000    2.75349600   -0.53381500
 C                 -1.40281100    3.78871900    0.40154400
 H                 -1.34404200    1.80374100   -0.44570700
 H                 -0.90307700    3.07291900   -1.58269600
 H                 -2.45710300    3.97908000    0.15854000
 H                 -1.35213100    3.44404800    1.44579000
 H                 -0.86238300    4.74530100    0.33862200

