%nprocshared=96
%mem=10GB
%chk=TS2.chk
# opt=(calcfc,ts,noeigen) freq 6-31g(d) m062x

Title Card Required

0 2
 C                 -2.81097500    0.01546200   -1.51344000
 C                 -1.65355100    0.09118100   -0.70155500
 C                 -1.80319100    0.18512500    0.71630300
 C                 -3.06438500    0.19134700    1.31384900
 C                 -4.18206600    0.11299600    0.48933300
 C                 -4.05504400    0.02617200   -0.91381200
 H                 -2.69176500   -0.05522200   -2.59469400
 H                 -3.17139500    0.25902200    2.39647600
 H                 -5.17628200    0.11837500    0.93766900
 H                 -4.95363900   -0.03670600   -1.52827500
 S                 -0.24502000    0.30403800    1.47151900
 N                 -0.38555300    0.09661500   -1.16223900
 C                  0.51379700    0.03376300   -0.15457800
 S                  1.00621400   -2.10115600   -0.09692600
 O                  0.41504000   -2.79617600   -1.23974300
 O                  0.80926300   -2.63281400    1.25470500
 C                  2.77169300   -1.76810600   -0.32950300
 C                  2.96961300   -0.37351400    0.24126900
 H                  2.95345800   -1.81536300   -1.41041300
 H                  3.30803000   -2.56725700    0.19625600
 C                  1.92688300    0.56674800   -0.37940700
 H                  2.86578900   -0.39448300    1.33853800
 H                  3.98126300   -0.01253100    0.01290900
 C                  2.09085400    2.01609800    0.08299800
 H                  2.04978300    0.53381100   -1.47470100
 H                  2.01497500    2.05863300    1.18340600
 H                  3.11728600    2.32966300   -0.16904700
 C                  1.09380200    2.98698100   -0.54196900
 C                  1.35804900    4.43027700   -0.12937600
 H                  0.06988600    2.70134100   -0.24856800
 H                  1.13765600    2.89245600   -1.63956700
 H                  0.63041800    5.11697400   -0.58308300
 H                  1.29278500    4.54286800    0.96325400
 H                  2.36421800    4.75072900   -0.43833000

