%nprocshared=96
%mem=50GB
%chk=TS3.chk
# opt=(calcfc,ts,noeigen) freq 6-31g(d) m062x

Title Card Required

0 2
 C                 -5.36372700   -0.78295000    1.28096800
 C                 -4.51763400   -0.22100900    0.31575200
 C                 -4.43302500   -0.79109800   -0.97173400
 C                 -5.17450700   -1.92778700   -1.30747900
 C                 -5.99746200   -2.47712100   -0.33724200
 C                 -6.09369400   -1.90903100    0.94712400
 H                 -5.42434400   -0.32584700    2.26304800
 H                 -5.10734500   -2.36758100   -2.29697900
 H                 -6.58222800   -3.36009900   -0.57422500
 H                 -6.75283600   -2.36143400    1.68061200
 S                 -3.29812400    0.10110000   -1.94119900
 N                 -3.70387300    0.88022700    0.51987600
 C                 -3.04876700    1.13240700   -0.55350300
 S                 -1.96108600    2.55837000   -0.70779200
 O                 -2.66064400    3.70388000   -0.14337600
 O                 -1.52107000    2.54903200   -2.09829600
 C                 -0.57925700    2.15765400    0.37778100
 C                  0.09846700    3.46380800    0.80542300
 H                  0.09586500    1.51618800   -0.19661900
 H                 -0.99789400    1.61096500    1.22968900
 C                  1.26058600    3.20284400    1.70986000
 H                  0.43915600    4.00391600   -0.08443400
 H                 -0.64886400    4.09030500    1.30951100
 C                  2.48435100    3.79202800    1.53277500
 H                  1.13270600    2.45821500    2.49469800
 H                  3.26519000    3.67695800    2.28076600
 H                  2.56916900    4.67121100    0.89600000
 S                  3.47431900    2.50366300   -0.13703400
 C                  3.65963200    0.92565200    0.72374000
 O                  2.38716300    2.31901300   -1.11378000
 O                  4.80953400    2.93977800   -0.57911400
 C                  4.00093900   -0.18340300   -0.26620800
 H                  2.70207600    0.74546900    1.22043800
 H                  4.44135100    1.06452300    1.47586300
 H                  5.03322000   -0.05549300   -0.60401300
 C                  3.81257900   -1.58194200    0.36247000
 H                  3.35299400   -0.09759200   -1.14691000
 C                  2.33774300   -1.82520500    0.55370300
 C                  4.49068200   -2.67788500   -0.47173800
 H                  4.25172600   -1.57923800    1.36916900
 S                  1.40729200   -2.71072100   -0.66052500
 N                  1.65520100   -1.34950300    1.54084600
 H                  4.14336300   -3.65845800   -0.12194200
 H                  4.17074600   -2.58830700   -1.52041700
 C                  6.01769300   -2.64965700   -0.40278100
 C                 -0.02992300   -2.40533700    0.27161900
 C                  0.30875100   -1.65838000    1.41545800
 H                  6.39895500   -1.69134600   -0.77287000
 H                  6.32896600   -2.72503600    0.64685900
 C                  6.64272200   -3.78564100   -1.20913900
 C                 -1.34414600   -2.81034900    0.03025300
 C                 -0.68924100   -1.28751400    2.32543100
 H                  6.36221400   -3.71477600   -2.26502500
 H                  7.73400300   -3.76172200   -1.14944800
 H                  6.30587800   -4.75947500   -0.83915000
 C                 -2.31682900   -2.44794700    0.94942000
 H                 -1.59838500   -3.39438600   -0.84836000
 C                 -1.99385900   -1.68131900    2.08188500
 H                 -0.41865700   -0.70970500    3.20352600
 H                 -3.34517200   -2.75905500    0.78976500
 H                 -2.78185600   -1.40041000    2.77369800

