%nprocshared=16
%mem=50GB
%chk=emimcl-scan.chk
#p opt=modredundant b3lyp/6-311+g(d,p) em=gd3

Title Card Required

0 1
 C                  0.32988500   -1.70323100   -0.64775200
 H                  1.04137800   -2.29326800   -1.19742100
 C                 -1.01747700   -1.60311000   -0.76368900
 H                 -1.70348200   -2.08579600   -1.43709500
 C                 -0.37202700   -0.22221100    0.83811000
 H                 -0.39267400    0.46482400    1.66186500
 N                  0.71432100   -0.86485500    0.38928700
 N                 -1.45023600   -0.71278300    0.20708800
 C                  2.09868700   -0.51490000    0.74279000
 H                  2.04448900    0.08649000    1.65084400
 H                  2.62301300   -1.44302700    0.98488200
 C                 -2.76684300   -0.08159000    0.26770300
 H                 -3.48679000   -0.72101200   -0.24084300
 H                 -3.06659800    0.04092800    1.30837800
 H                 -2.69155200    0.89756600   -0.21278400
 C                  2.79133700    0.26088400   -0.37556400
 H                  2.21701400    1.15879900   -0.61231200
 H                  3.79596300    0.54271300   -0.05039200
 H                  2.88499900   -0.34953500   -1.27753400
 Cl                -0.20542420    2.24094613   -0.97885925

D 5 3 1 20 S 20 5.000000

