%nprocshared=16
%mem=50GB
%chk=emimcl.chk
#p opt freq b3lyp/6-311+g(d,p) em=gd3

Title Card Required

0 1
 C                 -1.76136518   -0.74047712   -1.13347464
 H                 -1.39813748   -0.57886491   -2.12687637
 C                 -2.34016071   -1.86038790   -0.66399590
 H                 -2.52553143   -2.76026625   -1.21240890
 C                 -2.27658570   -0.36306078    1.05889834
 H                 -2.38731218    0.09656120    2.01878746
 N                 -1.72359827    0.21685218   -0.02239740
 N                 -2.66852176   -1.61148311    0.74406085
 C                 -1.17454730    1.57923298   -0.08037649
 H                 -0.79635369    1.85263587    0.88249444
 H                 -0.38165804    1.61399193   -0.79802430
 C                 -3.31616876   -2.56459796    1.65676313
 H                 -3.05727058   -3.56305941    1.37225219
 H                 -2.98469429   -2.38159405    2.65752994
 H                 -4.37795792   -2.44290430    1.60485518
 C                 -2.28483503    2.56296668   -0.49405448
 H                 -3.07772432    2.52820779    0.22359332
 H                 -1.88518581    3.55463166   -0.53625693
 H                 -2.66302868    2.28956383   -1.45692539
 Cl                -4.44467028   -0.01717806    0.46202206

